(set-logic ALL)
(declare-fun __intToBag_var_3 () (Bag Int))
(declare-fun __intToBag_var_2 () (Bag Int))
(assert true)
(assert true)
(assert (not (= __intToBag_var_2 (bag 3 1))))
(assert (not (= __intToBag_var_2 (bag 5 1))))
(assert (not (= __intToBag_var_2 (as bag.empty (Bag Int)))))
(assert (= (bag.union_disjoint __intToBag_var_2 __intToBag_var_3) (bag.union_disjoint (bag 3 1) (bag 5 1))))
(assert (= (bag.card (bag.setof (bag.union_disjoint (bag 2 2) (bag 3 1)))) (bag.card (bag.setof __intToBag_var_3))))
(assert (let ((_let_1 (bag 3 1))) (= (bag.card (bag.setof (bag.union_disjoint (bag 2 1) _let_1))) (bag.card (bag.setof (bag.union_disjoint _let_1 (bag 5 1)))))))
(assert true)
(check-sat)